logical_networks_editor/app/snapshots/output.log

--- Run: 2026-06-01 03:39:33.600393 ---
[INFO] Running 7 files: and.lp input.lp or.lp output.lp xor.lp main.lp preview.lp

clingo version 5.8.0
Reading from ...al_networks_editor/C-MCPN/gates/and.lp ...
Solving...
Answer: 1 (Time: 0.006s)
val("INPUT_1",1) val("INPUT_2",1) val("INPUT_Carry",0) val("XOR_1",0) val("AND_1",1) val("OR_1",1) val("AND_2",0) val("XOR_2",0) val("OUTPUT_1",0) val("OUTPUT_Carry",1)
SATISFIABLE

Models       : 1+
Calls        : 1
Time         : 0.006s (Solving: 0.00s 1st Model: 0.00s Unsat: 0.00s)
CPU Time     : 0.002s

--- Run: 2026-06-02 12:12:53.994072 ---
[INFO] Running 7 files: and.lp input.lp or.lp output.lp xor.lp main.lp preview.lp

clingo version 5.8.0
Reading from ...al_networks_editor/C-MCPN/gates/and.lp ...
Solving...
Answer: 1 (Time: 0.007s)
val("INPUT_1",1) val("INPUT_2",1) val("INPUT_Carry",0) val("XOR_1",0) val("AND_1",1) val("OR_1",1) val("AND_2",0) val("XOR_2",0) val("OUTPUT_1",0) val("OUTPUT_Carry",1)
SATISFIABLE

Models       : 1+
Calls        : 1
Time         : 0.007s (Solving: 0.00s 1st Model: 0.00s Unsat: 0.00s)
CPU Time     : 0.003s

--- Run: 2026-06-02 12:13:55.555367 ---
[INFO] Running 7 files: and.lp input.lp or.lp output.lp xor.lp main.lp preview.lp

clingo version 5.8.0
Reading from ...al_networks_editor/C-MCPN/gates/and.lp ...
Solving...
Answer: 1 (Time: 0.007s)
val("INPUT_1",1) val("XOR_1",0) val("AND_1",1) val("INPUT_2",1) val("XOR_2",0) val("AND_2",0) val("OR_1",1) val("OUTPUT_1",0) val("OUTPUT_Carry",1) val("INPUT_Carry",0)
SATISFIABLE

Models       : 1+
Calls        : 1
Time         : 0.007s (Solving: 0.00s 1st Model: 0.00s Unsat: 0.00s)
CPU Time     : 0.003s

--- Run: 2026-06-02 12:16:09.432507 ---
[INFO] Running 7 files: and.lp input.lp or.lp output.lp xor.lp main.lp preview.lp

clingo version 5.8.0
Reading from ...al_networks_editor/C-MCPN/gates/and.lp ...
Solving...
Answer: 1 (Time: 0.005s)
val("INPUT_1",1) val("INPUT_2",1) val("INPUT_Carry",0) val("XOR_1",0) val("AND_1",1) val("OR_1",1) val("AND_2",0) val("XOR_2",0) val("OUTPUT_1",0) val("OUTPUT_Carry",1)
SATISFIABLE

Models       : 1+
Calls        : 1
Time         : 0.005s (Solving: 0.00s 1st Model: 0.00s Unsat: 0.00s)
CPU Time     : 0.002s

--- Run: 2026-06-02 12:16:17.518733 ---
[INFO] Running 7 files: and.lp input.lp or.lp output.lp xor.lp main.lp preview.lp

clingo version 5.8.0
Reading from ...al_networks_editor/C-MCPN/gates/and.lp ...
Solving...
Answer: 1 (Time: 0.002s)
val("INPUT_1",1) val("XOR_1",0) val("AND_1",1) val("INPUT_2",1) val("XOR_2",0) val("AND_2",0) val("OR_1",1) val("OUTPUT_1",0) val("OUTPUT_Carry",1) val("INPUT_Carry",0)
SATISFIABLE

Models       : 1+
Calls        : 1
Time         : 0.002s (Solving: 0.00s 1st Model: 0.00s Unsat: 0.00s)
CPU Time     : 0.001s

--- Run: 2026-06-02 12:16:25.628757 ---
[INFO] Running 7 files: and.lp input.lp or.lp output.lp xor.lp main.lp preview.lp

clingo version 5.8.0
Reading from ...al_networks_editor/C-MCPN/gates/and.lp ...
Solving...
Answer: 1 (Time: 0.002s)
val("INPUT_1",1) val("XOR_1",0) val("AND_1",1) val("INPUT_2",1) val("XOR_2",0) val("AND_2",0) val("OR_1",1) val("OUTPUT_1",0) val("OUTPUT_Carry",1) val("INPUT_Carry",0)
SATISFIABLE

Models       : 1+
Calls        : 1
Time         : 0.002s (Solving: 0.00s 1st Model: 0.00s Unsat: 0.00s)
CPU Time     : 0.002s

--- Run: 2026-06-02 12:16:26.502399 ---
[INFO] Running 7 files: and.lp input.lp or.lp output.lp xor.lp main.lp preview.lp

clingo version 5.8.0
Reading from ...al_networks_editor/C-MCPN/gates/and.lp ...
Solving...
Answer: 1 (Time: 0.001s)
val("INPUT_1",1) val("XOR_1",0) val("AND_1",1) val("INPUT_2",1) val("XOR_2",0) val("AND_2",0) val("OR_1",1) val("OUTPUT_1",0) val("OUTPUT_Carry",1) val("INPUT_Carry",0)
SATISFIABLE

Models       : 1+
Calls        : 1
Time         : 0.001s (Solving: 0.00s 1st Model: 0.00s Unsat: 0.00s)
CPU Time     : 0.001s

--- Run: 2026-06-02 12:16:29.504584 ---
[INFO] Running 7 files: and.lp input.lp or.lp output.lp xor.lp main.lp preview.lp

clingo version 5.8.0
Reading from ...al_networks_editor/C-MCPN/gates/and.lp ...
Solving...
Answer: 1 (Time: 0.001s)
val("INPUT_1",1) val("XOR_1",0) val("AND_1",1) val("INPUT_2",1) val("XOR_2",0) val("AND_2",0) val("OR_1",1) val("OUTPUT_1",0) val("OUTPUT_Carry",1) val("INPUT_Carry",0)
SATISFIABLE

Models       : 1+
Calls        : 1
Time         : 0.001s (Solving: 0.00s 1st Model: 0.00s Unsat: 0.00s)
CPU Time     : 0.001s

--- Run: 2026-06-02 12:16:30.348918 ---
[INFO] Running 7 files: and.lp input.lp or.lp output.lp xor.lp main.lp preview.lp

clingo version 5.8.0
Reading from ...al_networks_editor/C-MCPN/gates/and.lp ...
Solving...
Answer: 1 (Time: 0.001s)
val("INPUT_1",1) val("XOR_1",0) val("AND_1",1) val("INPUT_2",1) val("XOR_2",0) val("AND_2",0) val("OR_1",1) val("OUTPUT_1",0) val("OUTPUT_Carry",1) val("INPUT_Carry",0)
SATISFIABLE

Models       : 1+
Calls        : 1
Time         : 0.001s (Solving: 0.00s 1st Model: 0.00s Unsat: 0.00s)
CPU Time     : 0.001s

--- Run: 2026-06-02 12:16:39.134153 ---
[INFO] Running 7 files: and.lp input.lp or.lp output.lp xor.lp main.lp preview.lp

clingo version 5.8.0
Reading from ...al_networks_editor/C-MCPN/gates/and.lp ...
Solving...
Answer: 1 (Time: 0.002s)
val("INPUT_1",1) val("XOR_1",0) val("AND_1",1) val("INPUT_2",1) val("XOR_2",0) val("AND_2",0) val("OR_1",1) val("OUTPUT_1",0) val("OUTPUT_Carry",1) val("INPUT_Carry",0)
SATISFIABLE

Models       : 1+
Calls        : 1
Time         : 0.002s (Solving: 0.00s 1st Model: 0.00s Unsat: 0.00s)
CPU Time     : 0.002s

--- Run: 2026-06-03 22:43:06.954126 ---
[INFO] Running 7 files: and.lp input.lp or.lp output.lp xor.lp main.lp preview.lp

clingo version 5.8.0
Reading from ...al_networks_editor/C-MCPN/gates/and.lp ...
Solving...
Answer: 1 (Time: 0.002s)
val("INPUT_1",1) val("INPUT_2",1) val("INPUT_Carry",0) val("XOR_1",0) val("AND_1",1) val("OR_1",1) val("AND_2",0) val("XOR_2",0) val("OUTPUT_1",0) val("OUTPUT_Carry",1)
SATISFIABLE

Models       : 1+
Calls        : 1
Time         : 0.002s (Solving: 0.00s 1st Model: 0.00s Unsat: 0.00s)
CPU Time     : 0.002s

--- Run: 2026-06-03 22:45:22.493601 ---
[INFO] Running 7 files: and.lp input.lp or.lp output.lp xor.lp main.lp preview.lp

clingo version 5.8.0
Reading from ...al_networks_editor/C-MCPN/gates/and.lp ...
Solving...
Answer: 1 (Time: 0.006s)
val("INPUT_1",1) val("INPUT_2",1) val("INPUT_Carry",0) val("XOR_1",0) val("AND_1",1) val("OR_1",1) val("AND_2",0) val("XOR_2",0) val("OUTPUT_1",0) val("OUTPUT_Carry",1)
SATISFIABLE

Models       : 1+
Calls        : 1
Time         : 0.006s (Solving: 0.00s 1st Model: 0.00s Unsat: 0.00s)
CPU Time     : 0.002s
